Water Network: 10
Results of actual Hazen--Williams headloss constraint

*******************************************************************************
wdnmodel.mod

-------------------------------- Solving with gurobi --------------------------
Gurobi 12.0.3: Set parameter LogToConsole to value 1
  tech:outlev = 1
  tech:outlev_mp = 1
Set parameter Presolve to value 1
  pre:solve = 1
Set parameter Aggregate to value 1
  pre:aggregate = 1
Set parameter TimeLimit to value 300
  lim:time = 300
Set parameter NumericFocus to value 1
  alg:numericfocus = 1
Set parameter OBBT to value 0
  mip:obbt = 0
Set parameter ScaleFlag to value 1
  pre:scale = 1
Set parameter Method to value 2
  alg:method = 2
Set parameter NodeMethod to value 1
  mip:nodemethod = 1
Set parameter NonConvex to value 2
  qp:nonconvex = 2
Set parameter MIPFocus to value 1
  mip:focus = 1
Set parameter NLPHeur to value 1
  alg:nlpheur = 1
Set parameter VarBranch to value 0
  mip:varbranch = 0
Set parameter MIPGapAbs to value 1e-06
  mip:gapabs = 9.9999999999999995e-07
Set parameter MIPGap to value 1e-09
  mip:gap = 1.0000000000000001e-09
Set parameter FeasibilityTol to value 1e-06
  alg:feastol = 9.9999999999999995e-07
  cvt:pre:feastol = 9.9999999999999995e-07
  cvt:pre:feastolrel = 1.0000000000000001e-09
  sol:chk:feastol = 9.9999999999999995e-07
  sol:chk:feastolrel = 1.0000000000000001e-09
Set parameter Heuristics to value 0.05
  mip:heurfrac = 0.050000000000000003

AMPL MP initial flat model has 1370 variables (0 integer, 0 binary);
Objectives: 1 linear; 
Constraints:  94 linear; 116 quadratic;
Algebraic expressions:  58 abs; 58 powconstexp;

AMPL MP final model has 1602 variables (0 integer, 0 binary);
Objectives: 1 linear; 
Constraints:  152 linear; 116 quadratic;
Algebraic expressions:  58 abs; 58 powconstexp;


Set parameter InfUnbdInfo to value 1
Gurobi Optimizer version 12.0.3 build v12.0.3rc0 (linux64 - "Debian GNU/Linux 12 (bookworm)")

CPU model: INTEL(R) XEON(R) GOLD 6530, instruction set [SSE2|AVX|AVX2|AVX512]
Thread count: 32 physical cores, 64 logical processors, using up to 32 threads

Non-default parameters:
TimeLimit  300
MIPGap  1e-09
MIPGapAbs  1e-06
Method  2
ScaleFlag  1
MIPFocus  1
NodeMethod  1
OBBT  0
VarBranch  0
InfUnbdInfo  1
NonConvex  2
NumericFocus  1
Presolve  1

Optimize a model with 152 rows, 1602 columns and 1564 nonzeros
Model fingerprint: 0x6f19e3ad
Model has 58 simple general constraints
  58 ABS
Model has 58 general nonlinear constraints (3828 nonlinear terms)
Variable types: 1602 continuous, 0 integer (0 binary)
Coefficient statistics:
  Matrix range     [1e+00, 1e+00]
  Objective range  [4e-01, 2e+02]
  Bounds range     [2e-03, 6e+05]
  RHS range        [3e-04, 4e+02]
Presolve model has 58 nlconstr
Added 2610 variables to disaggregate expressions.
Presolve added 231 rows and 57 columns
Presolve time: 0.19s
Presolved: 7343 rows, 4328 columns, 17396 nonzeros
Presolved model has 1334 bilinear constraint(s)
Presolved model has 58 nonlinear constraint(s)

Solving non-convex MINLP

Variable types: 4270 continuous, 58 integer (58 binary)
  NLP heuristic elapsed time = 5.02s
Root barrier log...

Ordering time: 0.02s

Barrier statistics:
 AA' NZ     : 8.538e+04
 Factor NZ  : 1.018e+05 (roughly 4 MB of memory)
 Factor Ops : 2.965e+06 (less than 1 second per iteration)
 Threads    : 32

                  Objective                Residual
Iter       Primal          Dual         Primal    Dual     Compl     Time
   0   1.53534321e+09 -1.08478614e+09  6.22e+05 0.00e+00  6.98e+05     9s
   1   2.26078517e+08 -1.86058390e+08  1.57e+05 8.17e-14  1.57e+05     9s
   2   4.33768479e+06 -2.19341138e+07  2.96e+03 8.53e-14  4.51e+03     9s
   3   5.71772873e+05 -2.50601900e+06  3.70e+02 5.68e-14  5.34e+02     9s
   4   1.24615793e+05 -5.75182360e+05  5.60e+01 5.68e-14  9.77e+01     9s
   5   3.67548469e+04 -8.85962957e+04  8.63e+00 5.68e-14  1.56e+01     9s
   6   1.25708095e+04 -3.56387505e+04  1.28e+00 5.68e-14  4.85e+00     9s
   7   6.67529638e+03 -6.24385814e+03  1.66e-01 5.68e-14  1.21e+00     9s
   8   4.41706252e+03 -1.34845715e+03  4.07e-02 5.68e-14  5.20e-01     9s
   9   4.04588621e+03  2.41115795e+03  2.68e-02 5.68e-14  1.57e-01     9s
  10   3.66374213e+03  2.94936055e+03  1.46e-02 1.21e-13  6.93e-02     9s
  11   3.55532281e+03  3.05431654e+03  1.12e-02 1.35e-13  4.88e-02     9s
  12   3.35680206e+03  3.12497352e+03  4.91e-03 3.98e-09  2.24e-02     9s
  13   3.29447373e+03  3.15355404e+03  2.99e-03 8.04e-09  1.35e-02     9s
  14   3.24671652e+03  3.16657999e+03  1.54e-03 1.12e-08  7.62e-03     9s
  15   3.21425766e+03  3.19312235e+03  5.67e-04 9.60e-09  2.07e-03     9s
  16   3.21203151e+03  3.19491334e+03  5.00e-04 2.59e-09  1.70e-03     9s
  17   3.20895491e+03  3.19529732e+03  4.12e-04 1.62e-09  1.38e-03     9s
  18   3.20582902e+03  3.19510022e+03  3.29e-04 1.56e-09  1.07e-03     9s
  19   3.20424091e+03  3.19527651e+03  2.72e-04 1.39e-09  9.04e-04     9s
  20   3.19632191e+03  3.19560166e+03  1.67e-05 6.76e-10  7.05e-05     9s
  21   3.19571990e+03  3.19571836e+03  3.09e-08 5.50e-12  1.46e-07     9s
  22   3.19571878e+03  3.19571878e+03  2.33e-10 3.76e-13  2.96e-13    10s

Barrier solved model in 22 iterations and 9.52 seconds (0.57 work units)
Optimal objective 3.19571878e+03


Root crossover log...

    1594 DPushes remaining with DInf 0.0000000e+00                10s
       0 DPushes remaining with DInf 0.0000000e+00                10s

     184 PPushes remaining with PInf 0.0000000e+00                10s
       9 PPushes remaining with PInf 4.6455314e-02                10s

  Push phase complete: Pinf 4.6455314e-02, Dinf 1.8946831e-12     10s


Root simplex log...

Iteration    Objective       Primal Inf.    Dual Inf.      Time
     498    3.1957188e+03   4.137095e+05   0.000000e+00     10s
    1537    3.1809531e+03   1.558159e+06   0.000000e+00     10s
    3229    3.1957188e+03   0.000000e+00   0.000000e+00     11s
    3229    3.1957188e+03   0.000000e+00   0.000000e+00     11s

Root relaxation: objective 3.195719e+03, 3229 iterations, 2.33 seconds (0.33 work units)
Total elapsed time = 11.18s (DegenMoves)

    Nodes    |    Current Node    |     Objective Bounds      |     Work
 Expl Unexpl |  Obj  Depth IntInf | Incumbent    BestBd   Gap | It/Node Time

     0     0 3195.71878    0  103          - 3195.71878      -     -   11s
     0     0 3195.71878    0   93          - 3195.71878      -     -   11s
     0     0 3195.71878    0   89          - 3195.71878      -     -   11s
     0     0 3195.71878    0   89          - 3195.71878      -     -   12s
     0     2 3195.71878    0   89          - 3195.71878      -     -   29s
     3     8 3195.71878    2  109          - 3195.71878      -   304   30s
    63    96 3195.71878    6   77          - 3195.71878      -   533   35s
   236   430 3195.71878    8   75          - 3195.71878      -   453   40s
   715  1067 3920.74184   22   77          - 3195.71878      -   466   55s
  1184  1572 3215.26029   16   81          - 3195.71878      -   445   63s
  1845  2095 3202.07034   31  101          - 3195.71878      -   456  100s
  2664  2858 3214.10036   33   91          - 3195.71878      -   426  111s
  3881  3620 infeasible   54               - 3195.71878      -   419  120s
  4995  4460 3195.77617   32  104          - 3195.71878      -   417  132s
  6410  4461 3496.84968   25   29          - 3195.71878      -   406  135s
  6411  4462 4255.44266   50   29          - 3195.71878      -   406  140s
  NLP heuristic elapsed time = 5.02s
  6415  4464 3195.71878   21    0          - 3195.71878      -   405  210s
  6416  4468 3195.74178   12  136          - 3195.71878      -   407  238s
  6430  4491 3195.74178   15   93          - 3195.71878      -   406  240s
  6510  4735 5391.28623   18   96          - 3195.71878      -   408  247s
  6716  4745 5396.13976   21   98          - 3195.71878      -   400  250s
  7204  5070 3678.23869   18   74          - 3195.71878      -   386  257s
  7656  5340 3903.62405   30   63          - 3195.71878      -   378  261s
  8101  5567 5567.31093   33   85          - 3195.71878      -   365  269s
  8283  5685 5012.39196   34   84          - 3195.71878      -   361  271s
  8913  6107 4947.44749   41   86          - 3195.71878      -   344  276s
  9736  6517 4948.18305   49   84          - 3195.71878      -   324  280s
 10274  6603 infeasible   53               - 3195.71878      -   313  300s

Explored 10321 nodes (3233257 simplex iterations) in 300.02 seconds (51.42 work units)
Thread count was 32 (of 64 available processors)

Solution count 0

Time limit reached
Best objective -, best bound 3.195718784833e+03, gap -
Gurobi 12.0.3: time limit, without a feasible solution
3.23326e+06 simplex iterations
39 barrier iterations
10321 branching nodes
eps [*,*]
:         1             2             3             4             5         :=
2     .             .            7.66224e-08    .             .
3     .             .             .            4.56269e-08    .
4     .             .             .             .            4.76044e-08
12    .             .             .            1.1901e-07     .
17    .            4.13836e-08    .             .             .
36   5.64653e-08    .             .             .             .
37   1.01532e-06    .             .             .             .

:         6            7             8             9            10         :=
5    4.38684e-08    .            .             .             .
6     .            7.1585e-08    .             .             .
18    .             .            .             .            9.28124e-08
21   5.65596e-08    .            .             .             .
22    .            4.3545e-08    .             .             .
24    .             .           7.25363e-08    .             .
25    .             .           6.84657e-08    .             .
28    .             .            .            6.22876e-08    .
30    .             .            .            7.51633e-08    .
31    .             .            .             .            6.12231e-08

:        11            12            13            14            15         :=
3    5.85077e-08    .             .             .             .
5     .             .            9.69874e-08    .             .
10   6.8599e-08     .             .             .             .
12    .             .            5.74911e-08    .             .
13    .             .             .            7.92965e-08    .
19    .            8.46157e-08    .             .             .
20    .             .             .             .            8.06711e-08
26    .             .             .             .            7.87568e-08

:        16            17            18            19            20         :=
1     .            7.24684e-08    .             .             .
2     .             .            6.48734e-08    .             .
11    .             .             .            6.49337e-08    .
14    .             .             .             .            1.43758e-07
15   6.09694e-08    .             .             .             .
17    .             .            5.32878e-08    .             .
19    .             .             .             .            5.17075e-08
27   8.47858e-08    .             .             .             .

:        21            22            23            24            25         :=
7     .             .             .            5.78863e-08    .
14   1.06401e-07    .             .             .             .
15    .            9.47425e-08    .             .             .
16    .             .             .             .            9.38248e-08
21    .            6.84457e-08    .             .             .
22    .             .            8.27672e-08    .             .
23    .             .             .             .            9.85875e-08
24    .             .            5.64349e-08    .             .

:        26            27            28            29            30         :=
8     .             .            6.91858e-08    .             .
11   9.32088e-08    .             .             .             .
16    .             .             .            7.15253e-08    .
26    .            6.143e-08      .             .             .
28    .             .             .            6.80778e-08    .
29    .             .             .             .            1.14728e-07
32    .            9.62444e-08    .             .             .

:        31            32            33            34            35         :=
1    9.83543e-08    .             .             .             .
10    .            1.23029e-07    .             .             .
29    .             .            5.58514e-08    .             .
30    .             .             .             .            7.65431e-08
31    .             .             .            1.11347e-07    .
32    .             .            6.92427e-08    .             .
33    .             .             .            1.49471e-07    .
34    .             .             .             .            6.43004e-08

:        36         :=
9    7.93728e-08
35   9.32874e-08
;

*******************************************************************************

Constraints violation:


Sum of constraints violation: 12281.053909999997
*******************************************************************************

*******************************************************************************

Absolute and relative violations between original and approximation constraint 2:

+-----------------+--------------+--------------------------+------------------------+----------------------+----------------------+
| Constraint ID   |   flow value |   Original Con Violation |   Approx Con Violation |   Absolute Violation |   Relative Violation |
+=================+==============+==========================+========================+======================+======================+
| 1,17            |            0 |                        0 |                      0 |                    0 |                    0 |
+-----------------+--------------+--------------------------+------------------------+----------------------+----------------------+
| 1,31            |            0 |                        0 |                      0 |                    0 |                    0 |
+-----------------+--------------+--------------------------+------------------------+----------------------+----------------------+
| 2,3             |            0 |                        0 |                      0 |                    0 |                    0 |
+-----------------+--------------+--------------------------+------------------------+----------------------+----------------------+
| 2,18            |            0 |                        0 |                      0 |                    0 |                    0 |
+-----------------+--------------+--------------------------+------------------------+----------------------+----------------------+
| 3,4             |            0 |                        0 |                      0 |                    0 |                    0 |
+-----------------+--------------+--------------------------+------------------------+----------------------+----------------------+
| 3,11            |            0 |                        0 |                      0 |                    0 |                    0 |
+-----------------+--------------+--------------------------+------------------------+----------------------+----------------------+
| 4,5             |            0 |                        0 |                      0 |                    0 |                    0 |
+-----------------+--------------+--------------------------+------------------------+----------------------+----------------------+
| 5,6             |            0 |                        0 |                      0 |                    0 |                    0 |
+-----------------+--------------+--------------------------+------------------------+----------------------+----------------------+
| 5,13            |            0 |                        0 |                      0 |                    0 |                    0 |
+-----------------+--------------+--------------------------+------------------------+----------------------+----------------------+
| 6,7             |            0 |                        0 |                      0 |                    0 |                    0 |
+-----------------+--------------+--------------------------+------------------------+----------------------+----------------------+
| 7,24            |            0 |                        0 |                      0 |                    0 |                    0 |
+-----------------+--------------+--------------------------+------------------------+----------------------+----------------------+
| 8,28            |            0 |                        0 |                      0 |                    0 |                    0 |
+-----------------+--------------+--------------------------+------------------------+----------------------+----------------------+
| 9,36            |            0 |                        0 |                      0 |                    0 |                    0 |
+-----------------+--------------+--------------------------+------------------------+----------------------+----------------------+
| 10,11           |            0 |                        0 |                      0 |                    0 |                    0 |
+-----------------+--------------+--------------------------+------------------------+----------------------+----------------------+
| 10,32           |            0 |                        0 |                      0 |                    0 |                    0 |
+-----------------+--------------+--------------------------+------------------------+----------------------+----------------------+
| 11,19           |            0 |                        0 |                      0 |                    0 |                    0 |
+-----------------+--------------+--------------------------+------------------------+----------------------+----------------------+
| 11,26           |            0 |                        0 |                      0 |                    0 |                    0 |
+-----------------+--------------+--------------------------+------------------------+----------------------+----------------------+
| 12,4            |            0 |                        0 |                      0 |                    0 |                    0 |
+-----------------+--------------+--------------------------+------------------------+----------------------+----------------------+
| 12,13           |            0 |                        0 |                      0 |                    0 |                    0 |
+-----------------+--------------+--------------------------+------------------------+----------------------+----------------------+
| 13,14           |            0 |                        0 |                      0 |                    0 |                    0 |
+-----------------+--------------+--------------------------+------------------------+----------------------+----------------------+
| 14,20           |            0 |                        0 |                      0 |                    0 |                    0 |
+-----------------+--------------+--------------------------+------------------------+----------------------+----------------------+
| 14,21           |            0 |                        0 |                      0 |                    0 |                    0 |
+-----------------+--------------+--------------------------+------------------------+----------------------+----------------------+
| 15,16           |            0 |                        0 |                      0 |                    0 |                    0 |
+-----------------+--------------+--------------------------+------------------------+----------------------+----------------------+
| 15,22           |            0 |                        0 |                      0 |                    0 |                    0 |
+-----------------+--------------+--------------------------+------------------------+----------------------+----------------------+
| 16,25           |            0 |                        0 |                      0 |                    0 |                    0 |
+-----------------+--------------+--------------------------+------------------------+----------------------+----------------------+
| 16,29           |            0 |                        0 |                      0 |                    0 |                    0 |
+-----------------+--------------+--------------------------+------------------------+----------------------+----------------------+
| 17,2            |            0 |                        0 |                      0 |                    0 |                    0 |
+-----------------+--------------+--------------------------+------------------------+----------------------+----------------------+
| 17,18           |            0 |                        0 |                      0 |                    0 |                    0 |
+-----------------+--------------+--------------------------+------------------------+----------------------+----------------------+
| 18,10           |            0 |                        0 |                      0 |                    0 |                    0 |
+-----------------+--------------+--------------------------+------------------------+----------------------+----------------------+
| 19,12           |            0 |                        0 |                      0 |                    0 |                    0 |
+-----------------+--------------+--------------------------+------------------------+----------------------+----------------------+
| 19,20           |            0 |                        0 |                      0 |                    0 |                    0 |
+-----------------+--------------+--------------------------+------------------------+----------------------+----------------------+
| 20,15           |            0 |                        0 |                      0 |                    0 |                    0 |
+-----------------+--------------+--------------------------+------------------------+----------------------+----------------------+
| 21,6            |            0 |                        0 |                      0 |                    0 |                    0 |
+-----------------+--------------+--------------------------+------------------------+----------------------+----------------------+
| 21,22           |            0 |                        0 |                      0 |                    0 |                    0 |
+-----------------+--------------+--------------------------+------------------------+----------------------+----------------------+
| 22,7            |            0 |                        0 |                      0 |                    0 |                    0 |
+-----------------+--------------+--------------------------+------------------------+----------------------+----------------------+
| 22,23           |            0 |                        0 |                      0 |                    0 |                    0 |
+-----------------+--------------+--------------------------+------------------------+----------------------+----------------------+
| 23,25           |            0 |                        0 |                      0 |                    0 |                    0 |
+-----------------+--------------+--------------------------+------------------------+----------------------+----------------------+
| 24,8            |            0 |                        0 |                      0 |                    0 |                    0 |
+-----------------+--------------+--------------------------+------------------------+----------------------+----------------------+
| 24,23           |            0 |                        0 |                      0 |                    0 |                    0 |
+-----------------+--------------+--------------------------+------------------------+----------------------+----------------------+
| 25,8            |            0 |                        0 |                      0 |                    0 |                    0 |
+-----------------+--------------+--------------------------+------------------------+----------------------+----------------------+
| 26,15           |            0 |                        0 |                      0 |                    0 |                    0 |
+-----------------+--------------+--------------------------+------------------------+----------------------+----------------------+
| 26,27           |            0 |                        0 |                      0 |                    0 |                    0 |
+-----------------+--------------+--------------------------+------------------------+----------------------+----------------------+
| 27,16           |            0 |                        0 |                      0 |                    0 |                    0 |
+-----------------+--------------+--------------------------+------------------------+----------------------+----------------------+
| 28,9            |            0 |                        0 |                      0 |                    0 |                    0 |
+-----------------+--------------+--------------------------+------------------------+----------------------+----------------------+
| 28,29           |            0 |                        0 |                      0 |                    0 |                    0 |
+-----------------+--------------+--------------------------+------------------------+----------------------+----------------------+
| 29,30           |            0 |                        0 |                      0 |                    0 |                    0 |
+-----------------+--------------+--------------------------+------------------------+----------------------+----------------------+
| 29,33           |            0 |                        0 |                      0 |                    0 |                    0 |
+-----------------+--------------+--------------------------+------------------------+----------------------+----------------------+
| 30,9            |            0 |                        0 |                      0 |                    0 |                    0 |
+-----------------+--------------+--------------------------+------------------------+----------------------+----------------------+
| 30,35           |            0 |                        0 |                      0 |                    0 |                    0 |
+-----------------+--------------+--------------------------+------------------------+----------------------+----------------------+
| 31,10           |            0 |                        0 |                      0 |                    0 |                    0 |
+-----------------+--------------+--------------------------+------------------------+----------------------+----------------------+
| 31,34           |            0 |                        0 |                      0 |                    0 |                    0 |
+-----------------+--------------+--------------------------+------------------------+----------------------+----------------------+
| 32,27           |            0 |                        0 |                      0 |                    0 |                    0 |
+-----------------+--------------+--------------------------+------------------------+----------------------+----------------------+
| 32,33           |            0 |                        0 |                      0 |                    0 |                    0 |
+-----------------+--------------+--------------------------+------------------------+----------------------+----------------------+
| 33,34           |            0 |                        0 |                      0 |                    0 |                    0 |
+-----------------+--------------+--------------------------+------------------------+----------------------+----------------------+
| 34,35           |            0 |                        0 |                      0 |                    0 |                    0 |
+-----------------+--------------+--------------------------+------------------------+----------------------+----------------------+
| 35,36           |            0 |                        0 |                      0 |                    0 |                    0 |
+-----------------+--------------+--------------------------+------------------------+----------------------+----------------------+
| 36,1            |            0 |                        0 |                      0 |                    0 |                    0 |
+-----------------+--------------+--------------------------+------------------------+----------------------+----------------------+
| 37,1            |            0 |                      121 |                    121 |                    0 |                    0 |
+-----------------+--------------+--------------------------+------------------------+----------------------+----------------------+

Sum of violation of original headloss constraint: 121.0
Sum of violation of approx headloss constraint: 121.0

Con2 sum of absolute violation between original function and approximate function: 0.0
Con2 sum of relative violation between original function and approximate function: 0.0
*******************************************************************************

Total cost using gurobi: 0.0
gurobi solve time: 300.22 seconds
*******************************************************************************

